c User generated cnf file
p cnf 15 44
15 7 -9 0 
15 -8 6 0 
1 -12 8 0 
6 -3 15 0 
1 12 -12 0 
5 -9 14 0 
-10 1 13 0 
2 -7 11 0 
-7 14 6 0 
-15 15 2 0 
14 11 -15 0 
4 -6 14 0 
13 -9 5 0 
5 7 -12 0 
-13 11 5 0 
11 -15 9 0 
3 -13 11 0 
12 12 -12 0 
6 -9 5 0 
11 -3 14 0 
3 -11 1 0 
14 -5 13 0 
3 -8 14 0 
14 9 -4 0 
-5 6 2 0 
8 -1 2 0 
-10 9 7 0 
9 4 -9 0 
14 6 -13 0 
7 7 -4 0 
-10 14 15 0 
4 13 -1 0 
3 -1 10 0 
-6 15 1 0 
8 -8 8 0 
6 -3 15 0 
1 -4 9 0 
-14 7 11 0 
5 -11 10 0 
-13 9 1 0 
5 -12 1 0 
12 -4 5 0 
5 -7 12 0 
4 7 -13 0 
